NAME : OMNETRUN
COMMENT : 524.61
TYPE : CVRP
DIMENSION : 21
EDGE_WEIGHT_TYPE : EUC_2D
CAPACITY : 21
NODE_COORD_SECTION
1 0.107093 -0.77924
2 15.8337 -132.514
3 225.231 -1196.95
4 22.3888 -2783.9
5 213.722 -4422.92
6 170.641 -5382.42
7 322.563 -689.66
8 254.804 -1802.05
9 368.297 -2349.15
10 443.315 -4012.47
11 366.763 -4926.91
12 259.473 -5919.61
13 721.492 -373.541
14 648.141 -1401.48
15 527.23 -2800.42
16 584.399 -3200.21
17 659.14 -4310.9
18 768.132 -774.129
19 956.003 -1114.92
20 808.505 -1723.9
21 775.486 -2255.36
DEMAND_SECTION
1 0
2 1
3 1
4 1
5 1
6 1
7 1
8 1
9 1
10 1
11 1
12 1
13 1
14 1
15 1
16 1
17 1
18 1
19 1
20 1
21 1
DEPOT_SECTION
1
-1
EOF
